#######################################
### Exact MIP solver for the HHCRSP ###
#######################################
-- Instance file: new-instances/HHCRSP_400_80_92_1.0_C_C.txt
-- Max threads: 4
-- Time limit: 999999 seconds
-- Use initial solution: No
Trivial flow violations prevented generating 2764830 variables.
Version identifier: 20.1.0.0 | 2020-11-10 | 9bedb6d68
CPXPARAM_Threads                                 4
CPXPARAM_Emphasis_Memory                         1
CPXPARAM_TimeLimit                               999999
Tried aggregator 1 time.
Presolve has eliminated 79758 rows and 16903 columns...
LP Presolve eliminated 79758 rows and 16903 columns.
Reduced LP has 2766234 rows, 2624006 columns, and 76567255 nonzeros.
Presolve time = 75.95 sec. (16324.07 ticks)
Compression time = 19.24 sec. (5.23 ticks)
Compression reduced 1112.07 MB A matrix to 335.28 MB
Symmetry aggregator did 4652917 additional substitutions.
Elapsed time = 96.49 sec. (17071.72 ticks, 1 iterations)

Iteration log . . .
Iteration:     1   Dual objective     =             0.000000
Iteration:  1828   Dual objective     =           371.333333

Dual crossover.
  Dual:  Fixing 3046 variables.
     3045 DMoves:  Infeasibility  2.26779707e-12  Objective  3.74666667e+02
        0 DMoves:  Infeasibility  1.15640831e-12  Objective  3.74666667e+02
  Dual:  Pushed 36, exchanged 3010.
  Primal:  Fixing 2010 variables.
     2009 PMoves:  Infeasibility  6.42281367e-16  Objective  3.74666667e+02
        0 PMoves:  Infeasibility  2.33222729e-15  Objective  3.74666667e+02
  Primal:  Pushed 1774, exchanged 236.

Solution status from MIP model:
-- Processing time: 132.32 sec.
-- Memory used: 1747.4 MB
-- Best bound: inf
-- Obj value: 374.667
-- Gap: inf%
-- Total distance: 1124
-- Total tardiness: 0
-- Largest tardiness: 0
